
%FILE DATA:	Soccer Computational Problem for MiniZinc Models	%
%AUTHOR:	Jack Wall	%
%CONTACT:  	116397063@umail.ucc.ie			%
%LAST UPDATE:	03/03/2020, 16:00:17						%
%DESCRIPTION: 	35 games played with 7 games left				%


n=7; %number of teams

%Games to play
games=[|7,2|7,5|2,6|3,2|5,3|5,4|4,5|];

%Initial points
iPoints=[15,14,10,9,6,22,18];

%POSITION CONSTRAINTS
% [|teamID, operator, position|...]
% operators index:
%  1 for =  operator
%  2 for >  operator
%  3 for >= operator
%  4 for <  operator
%  5 for <= operator
positionConstraints=[|6,1,1|7,2,1|2,2,2|];